DATASET = "thpack4";
INSTANCE = "027";

WIDTH = 233;
HEIGHT = 220;
LENGTH = 587;

NO_OF_SHAPES = 10;
size = [|
  118,66,47 |
  99,56,25 |
  91,83,48 |
  104,66,40 |
  75,60,33 |
  113,78,60 |
  36,36,29 |
  56,48,40 |
  67,40,22 |
  92,78,64 |
|];

verticality = [|
  0,1,1 |
  0,0,1 |
  1,1,1 |
  0,1,1 |
  0,1,1 |
  1,1,1 |
  1,1,1 |
  1,1,1 |
  0,1,1 |
  1,1,1 |
|];

box_count = [
  11,
  15,
  13,
  9,
  14,
  13,
  14,
  8,
  10,
  12,
];
